
 102   30
  10   10   10   10   10   10   10   10   10   10   10   10   10   10   10   10   10   10   10   10   10   10   10   10   10   10   10   10   10   10

   0   0   0   0   0   0   0   0   0   0   0   0   0   0   0   0   0   0   0   0   0   0   0   0   0   0   0   0   0   0   0  28 2 3 4 5 6 7 8 9 10 11 12 13 14 16 17 18 19 20 21 24 25 26 27 28 31 33 35 42 
   6   0   0   0   0   0   0   0   0   0   0   0   0   0   0   2   0   0   0   0   1   2   0   0   0   0   3   0   1   0   0  22 99 70 68 67 63 61 59 56 55 54 52 51 50 49 48 45 41 40 39 34 32 30 
   3   0   0   3   0   0   0   0   0   0   0   1   0   0   1   0   0   0   0   0  10   0   0   0   0   0   0   1   0   0   0  15 97 71 70 60 53 52 50 49 44 43 40 38 37 36 23 
   6   0   0   0   0   0   0   0   0   0   0   0   0   0   0   0   0   0   0   0   0   0   4   1   0   0   0   0   0   0   0  14 100 71 69 63 62 60 54 49 48 44 40 38 36 22 
   5   0   1   0   0   0   1   3   4   0   0   0   0   0   0   0   0   1   0   0   0   0   0   0   0   0   0   0   0   0   0  13 100 71 69 67 62 60 57 56 51 49 45 37 15 
   1   0  10   0   0   0   0   0   0   0   0   0   0   0   0   0   0   0   0   0   0   6   0   0   0   0   0   6   0   0   0  11 99 95 93 71 69 62 57 48 43 30 22 
   4   0   0   0   0   0   0   0   0   0   0   0   0   0   0   0   0   0   0   0   0  10   5   9   0   1   0   0   0   2   0  14 99 97 71 68 67 62 60 59 56 53 49 43 37 23 
   7   0   0   0   0   0   0   0   5   0   0   7   2   0   8   0   0   0   0   0   0   0   0   0   1   0   0   0   0   0   1  16 100 99 98 96 67 66 65 61 60 56 55 48 47 46 40 29 
   5   0   0   0   0   0   0   0   0   0   0   0   0   0   0   0   0   0   0   0   5   0   0   0   0   0   0   0   0   0   0  17 101 98 95 71 70 69 66 65 61 55 53 51 50 49 48 40 36 
   1   0   0   0   3   0   0   7   9   0   0   0   0   0   0   0   0   0   0   0   0   9   0   0   0   0   0   0   0   0   8  16 101 100 97 94 71 66 65 64 62 61 60 55 49 44 38 36 
   9   0   0   4   0   0   0   0   7   0   0   0   0   0   0   7   0   6   0   0   5   0   0   0   0   0   0   0   9   0   0  16 99 97 95 93 71 69 68 67 66 65 59 57 56 45 40 30 
   2   0   0   0   0   0   0   0   0   0   0   0   0   0   0   0   1   0   0   0   0   0   0   0   0   0   0   5   0   0   0  15 99 98 96 91 90 70 67 66 65 64 60 52 50 48 38 
   4   0   0   0   0   0   0   0   7   0   0   0   0   2   5   0   0   0   0   0   0   0   0   0   0   0   0   6   0   0   0  13 100 98 97 93 89 65 62 60 55 52 43 40 38 
   5   0   0   0   4   0   0   0   0   0   5   0   0   0   0   0   0   0   0   0   0   0   0   0   0   0   0   4   0   0   0  12 100 98 93 92 60 59 56 48 43 40 37 36 
   2   0   0   0   0   0   0   0   0   0   6   0   4   0   6   0   0   0   0   0   0   0   0   0   0   0   0   0   0   0   7  15 99 98 95 92 91 90 81 66 65 64 59 54 50 48 43 
   9   0   0   0   0   0   7   0   0   0   0   4   0   0   0   0   0   0   0   0   0   0   0   0   0   0   6   0   0   0   0  12 100 95 93 70 66 65 64 61 58 49 48 36 
   6   0   0   0   0   0   0   0   0   0   0   9   0   0   0   0   0   0   0   0   9   0   9   0   0   0   0   0   0   0   0  13 99 96 95 94 93 90 87 65 59 56 52 51 30 
   3   0   0   0   0   0   0   0   0   1   0   0   0   0   0   0   0   0   0   0   0   0   0   6   0   0   0   0   0   0   0   9 98 95 65 64 59 50 49 37 36 
   8   0   0   0   0   0   5   0   0   0   0   0   0   0   0   6   0   0   0   0   0   0   6   0   0   0   0   0   8   0   0  14 100 95 94 90 89 70 65 64 61 59 56 55 53 44 
   5   0   0   0   0   0   0   0   0   9   0   0   0   0   0   0   0   0   0   4   0   0   0   0   8   0   0   8   0   0   0  19 99 98 97 96 95 93 90 89 86 82 80 70 69 64 59 58 57 56 45 
   2   0   0   0   0   0   0   0   0   2   0   0   0   0   0   0   0   0   0   5   0   0   0   0   0   0   0   0   0   0   0  16 101 96 95 93 91 90 87 84 81 69 67 65 58 57 54 48 
   6   1   0  10   0   0   0   0   0   0   0   0   0   0   0   0   0   4   0   0   7   0   0   0   0   0   0   0   0   0   0  15 101 97 94 92 90 89 83 70 67 65 64 59 58 56 37 
   2   0   0   0   0   0   0   3   0   0   0   4   0   4   3   0   0   0   0   0   0   0   7   6   0   0   0   0   0   0   0  15 101 96 94 93 92 91 90 89 69 66 65 64 57 54 51 
  10   0   0   0   0   0   0   0   0   0   0   0   5   0   0   0   0   0   0   0   9   7   0   0  10   6   0   0   0   2   0  13 99 96 93 89 85 84 82 69 67 66 60 57 40 
   6   0   0   0   0   0   0   9   0   7   0   0   0   0   0   0   0   0   0   0   0   5   0   0   0   0   0   0   0   0   0  11 98 97 94 93 86 85 82 81 66 58 36 
   5   0   0   4   0   0   0   0   0   0   0   0   0   0   0   0   0   6   0   0   0   0   0   0   0   8   0   0   0   0   0  15 99 98 97 96 92 91 89 86 85 83 82 80 66 59 50 
   3   0   0   0   0   0   0   5   0   0   0   0   0   0   0   0   4   0   0   0   0   0   0   0   0   7   0   0   0   0   0   9 99 97 96 90 87 85 78 64 38 
   7   0   0   0   0   0   0   0   0   0   0  10   6  10   0   3   0   0   0   0   0   0   4   0   0   7   0   0   0   0   0   8 93 89 83 82 59 58 57 40 
   8   0   0   5   0   0   0   0   0   4   0   0   0   0   0   0   0   0   1   0   0   0   0   0   0   0   0   7   9   0   0   6 97 89 87 85 78 38 
   5   9   0   0   0   3   0   0   5   0   0   0   0   0   0   0   0   0  10   0   3   4   7   0   0   0   0   0   0   5   0  16 100 98 92 91 89 85 84 83 82 81 80 77 75 64 60 58 
   5   0   0   0   0   5   0   6   0   0   0   0   0   0   0   0   0   6   0   0   0   0   0   0   0   7   0   0   0   0   0  18 101 96 95 94 93 91 90 88 85 84 83 82 81 80 79 73 71 64 
   1   0   0   0   0   0   0   0   0   7   0   0   0   0   0   0   0   0   0   0   0   0   0   0   0   4   0   0   0   0   0  17 101 95 94 91 90 89 87 86 84 82 80 78 76 75 74 73 57 
   8   0   0   0   8   0   0   0   0   0   0   0   0   0   0   0   0   7   0   0   0   0   0   0   0   0   0   0   7   0   2  16 98 95 94 91 90 89 87 86 83 82 80 79 76 70 69 64 
   3   0   6   0   0   0   0   0   0   0   0   0   6   4   0   0   0   0   0   0   5   0   0   0   0   0   0   0   0   0   0  14 96 95 91 90 89 87 84 83 80 77 75 72 60 58 
   2   6   0   0   0   0   0   0  10   0   0   0   0   0   0   8   0   0   0   0   0   0   0   0   0   0   0   0   0   0   0   7 91 80 78 77 65 58 49 
   8   0   0   0   0  10   0   0   0   0   0   0   0   0   0   0   0   0   0   0   0   0   0   0   7   0   0   0   0   0   0  13 99 96 91 90 89 87 84 83 80 75 74 73 57 
   4   0   0   0   0   0   0   0   0   0   0   7   0   0   0   7   0   0   0   6   0   0   0   0   0   0   0   0   0   0   7  11 88 85 84 82 81 79 76 75 73 66 55 
   3   0   0   4   0   0   0   0   0   0   8   0   0   5   0   8   4   0   0   0   0   0   0   0   0   0   0   0   0   0   0   8 95 83 82 81 80 59 58 57 
  10   0   0   0   6   0   6   0   0   0   0   5   0   0   0   0   0   0   0   0   0   0   0   0   0   6   0   0   0   7   0  12 89 85 84 82 81 80 79 78 77 72 71 58 
   7   6   0   0   0   0   0   0   0   7   0   0   0   0   0   0   7   0   0   0   0   0   0   0   0   0   0   0   0   0   0  13 94 91 90 88 86 81 80 78 77 76 75 73 64 
   1   0   0   0   0   7   5   0   0   0   0   6   0   0   0   0   0   8   0   0   8   5   0   0   0   0   0   0   0   0   0   9 97 90 84 83 76 73 66 65 64 
   2   0   0   0  10   0   0   0   0   0   0   0   0   0   0   0   0   0   0   0   0   5   0   0   0   0   0   0   0   0   0   9 92 86 79 78 76 74 72 69 59 
   8   0   0   0   0   5   5   0   0   0   0   0   0   0   0   0   0   0   0   0   0   0   8   0   0   0   0   0   0   0   0   8 96 88 87 84 80 75 61 58 
   2   0   4   6   0   0   0   0   6   0   0   0   5   0   0   6   0   0   0   0   0   0   0   0   0   0   0  10   0   0   7  12 98 93 92 87 85 83 80 77 75 74 73 72 
   4   0   0   0   0   0   0   0   0   0   0   0   0   0   8   5   0   0   0   0   0   0   0   0   0   9   4   5   0   0   0  10 92 91 85 83 78 76 75 74 73 72 
   8   0   0   0   0   0   0  10   0   0   0   0   0   0   0   0   0   0   0   0   0   0   0   0   0   0   0   0   0   0   0  10 95 93 89 85 83 81 78 77 75 72 
   3   0   0   0   0   0   7   0   0   0   4   0   0   0   0   0   0   0   4   0   6   0   0   0   0   0   0   7   0   0   0   8 92 88 86 75 74 72 70 69 
   5   6   0   0   0   0   8   0   0   0   0   0   0   0   0   0   0   0   0   0   4   7   0   0   0   0   4   0   0   0   0   9 97 94 89 86 85 82 79 75 73 
   9   0   0   0   0   0   0   0   0   0   0   0   0   0   0   0   0   0   0   0   8   0   8   0   0   3   0   0   0   0   0   8 92 89 87 83 82 81 73 72 
   6   0   0   0   0   0   0   0   0   0   0   0   0   0   0   0   0   5   0   0   0   0   0   0   9   0   0   0   0   0   0   8 93 88 87 84 79 76 73 72 
   2   0   9   0   0   0   0   0   0   0   0   0   0   0   0   0   0   0   0   0   7   0   0   0   0   0   0   0   0   0   0   7 82 81 78 76 74 73 72 
   5   0   0   7   0   0   0   0   0   0   0   0   0   0   0   0   0   0   0   0   0   0   0   0   0   0   0   0   0   0   0   6 92 86 78 77 72 69 
   7   0   7   0   0   0   0   0   0   0   0   0   0   0   0   8   0   0   0   0   0   0   0   0   0   0  10   0   0   0   0   4 88 81 79 58 
   2   0   0   0   0   0   0   0   0   0   0   0   0   0   0   0   8   0   0   6   0   0   0   0   0   0   0   0   0   5   9   6 86 83 80 78 77 75 
   6   0   0   7   0   0   0   0   0   0   0   6   0   0   0   6   0   0   0   0   0   0   0   0   0   5   0   0   0   0   0   5 86 80 78 74 72 
   2   0   0   0   0   0   0   0   5   5   0   0  10   0   0   4   0   0   0   0   0   0   0   0   0   0   0   0   0   0   0   5 76 75 74 73 72 
   6   0   0   0   0   3   0   0   0   0   0   5   0   0   0   0   8   0   0   0   0   0   0   0   6   0   0   6   0   0   0   4 88 79 77 72 
   1   0   0   0   0   0   0   0   0   0   0   0   9   0   0   0   0   0   0   0   0   0   0   0   0   4   0   0   0   0   0   3 76 74 73 
   8   0   0   0   0  10   0   0   0   6   0   0   0   8   0   0   0   0   0   0   0   0   0   0   4   0   0   0   0   7   0   3 84 77 75 
   4   0   0   0   0   0   0   0   0   0   0   0   0   0   0   0   0   8   0   0   0   6   0   0   1   0   8   0   0   0   0   3 86 78 76 
   1   0   0   7   0   0   0   0   0   0   0   0   0   0   0   6   5   0   0   0   0   0   0   0   0   0   0   0   0   0   0   3 82 77 76 
   2   0   0   0   0   0   0   0   0   0   0   0   0   8   0   0   9   0   0   0   0   0   0   0   0   0   0   0   0   0   0   3 90 85 72 
   9   0   7   0   0   0   0   0   0   0   0   0   0   0   0   0   0   0   0   0   0   6   0   0   7   4   9   0   0   0   0   3 95 77 72 
   8   5   0   0   9   0   0   0   0   0   4   0   0   0   0   0   0   0   0   0   0   0   3   0   0   8   0   0   0   0   0   2 74 72 
  10   0   0   0   4   0   0   0   0   0   0   0   0   0   8   0   0   0   0   0   0   0   0   0   0   0   0   0   5   0   0   2 85 79 
   7   0   0   0   0   0   0   0   0   0   0   0   0   0   0   0   0   7   4   6   0   0   0   0   0   0   0   0   0   0   0   2 87 78 
   1   0   8   8   0   0   0   0   0   0   0   0   0   0   0  10   0   0   6   0   0   0   6   0   0   0   9   0   0   0   0   2 79 72 
   8   0   0   0   0   5   0   0   0   0   0   0   0   0   0   0   0   0   0   0   0   0   0   0   0   0   0   0   0   0   0   2 81 75 
   1   0   0   0   0   0   0   0   3   0  10   0   0   0   0   4   0   0   0   0   5   0   0   0   0   8   0   0   0   7   8   1 73 
   4   7   0   0   0   0   0   0   0   0   0   0   0   0   0   0   0   0   6   0   0   0   0   0   0   0   0   0   0   0   0   1 81 
   6   0   0   0   0   0   0   0   0   0   0   0   0   0   0   0   5   0   0   0   0   0   0   0   6   0   6   0   0   9   0   1 75 
   4   5   9   0   0   0   0   0   0   0   7   0   8   0   0   0   0   8   0   0   0   0  10   0   0   0   0   0   0   0   0   1 102
   5   0   0   0   0   0   0   0   0   9   0   0   0   0   0   0   0   0   0   0   0   0   0   7   0   0   0   0   0   0   0   1 102
   9   0   0   0   0   0   0   0   0   4   0   0   0   0   0   0   0   0   0   0   0   5   0   0   0   0   0   0   0   5   0   1 102
   1   0   3   0   0   0   0   0   0   0   0   0   0   0   0   0   0   0   0   0   0   0   0   0   0   0   6   0   0   0   0   1 102
   6   0   0   0   6   0   0   0   0   0   8   0   0   0   0   8   0   0   0   0   0   0   0   0   0   0   7   5   0   0   0   1 102
   8   0   0   0   0   0   0   0   0   0   0   0   0   0   0   0   0   0   0   0   0   0   0   0   0   0   0   0   0   0   0   1 102
   1   8   0   0   0   0   0   0   6   0   0   0   6   0   0   0   0   0   0   0   0   0   0   6   0   0   7   0   0   6   0   1 102
   2   0   0   0   4   0   0   0   0   0   0   0   0   0   0   0   0   0   0   0   0   0   0   0   0   0   4   8   0   0   5   1 102
   8   0   0   0   0   0   0   0   0   7   0   0   0   0   0   0   0   0   0   0   0   0   0   0   0   0   0   0   0   0   0   1 102
   5   0   5   9   0   0   0   0   0   6   0   4   7   0   0   0   5   0   0   0   6   0   8   0   0   0   0   0   4   0   0   1 102
   9   6   0   0   0   0   0   0   0   9   0   0   0   0   9   0   0   0   0   0   8   0   5  10   0   0   0   0   0  10   0   1 102
   6   0   3   0   0   0  10   0   0   0   0   0   6   0   0   0   0   0   8   0   0   0   0   0   0   0   0   0   6   0   0   1 102
   7   0   6   0   7   0   0   0   0   7   5   0   0   0   0   0   0   0   0   0   4   0   0   0   0   0   7   0   5   0   0   1 102
   2   0   0   0   0   0   0   0   0   0   0   0   0   0   0   0   0   0   0   0   0   0   0   0   0   0   0   0   0   0   0   1 102
   5   0   5   0   0   7   0   0   0   0   0   0   0   3   0   0   0   0   0   5   0   0   0   4   8   0   6   0   0   0   0   1 102
  10   0   0   0   4   0   0   0   0   0   5   0   0   0   0   0   0   0   0   0   0   0   0   0   0   0   5   6   0   0   0   1 102
   1   7   0   0   9   0   0   0   0   0   0   0   0   0   0   0   0   0   0   0   0   0   5   0   0   0   3   0   0   0   0   1 102
   8   0   0   0   0   0   0   0   0   0   0   0   0  10   0   0   0   0   0   0   0   0   0   0   5   0   3   0   0   5   0   1 102
   7   0   0   0   0   0   0   0   0   6   0   0   0   0   0   0   0   0   5   0   0   0   0   0   0   0   9   0   0   0   0   1 102
   1   0   0   0   0   7   0   0   0   0   3   6   0   0   0   9   9   0   0   0   0   0   0   0   0   0   0   0   0   0   0   1 102
   3   6   0   7   0   0   0   6   0   0   0   0   0   0   0   0   6   0   0   0   0   0   0   0   0   0   0   0   0   0   0   1 102
   5   0   0   0   0   0   0   0   3   0   0   0   0   0   0   4   0   0  10   0   0   0   0   0   0   0   0   0   0   0   0   1 102
   9   0   0   6   0   0   0   4   0   0   0   0   0   0   0   0   7   0   0  10   2   0   0   5   0   0   0   0   0   0   0   1 102
   4   6   7   0   0   0   0   7   8   0   0   0   0   0   0   3   0   0   0   0   8   0   0   0   0   0   0   0   0   0   0   1 102
   2   0   0   4   4   0   0   0   0   0   7   0   0   0   0   0   0   0   8   0   0   7   0   0   0   7   0   0   0   0   0   1 102
   2   0   0   6   0   0   0   0   0   0   0   0   4   0   0   0   0   0   0   0   0   0   0   0   0   8   0   0   0   0   6   1 102
   5   0   0   0   0   0   0   0   0   0   0   0   0   0   0   0   0   0   0   0   0   0   0   0   0   0   0   0   0   0   0   1 102
  10   0   0   5   0   0   0   0   0   0   0  10   0   0   0   0   0   0   0   0   0   0   3   0   0   0   0   0   0   0   0   1 102
   8   0   0   0   0   0   0   0   0   0   6   0   0   0   0   0   0   0   4   0   0   0   4   0   0   0   4   0   0   0   0   1 102
   2   0   0   0   0   4   0   0   0   0   0   0   0   0   0   0   0   0   0   0   0   0   0   0   0   0   0   0   0   8   0   1 102
   0   0   0   0   0   0   0   0   0   0   0   0   0   0   0   0   0   0   0   0   0   0   0   0   0   0   0   0   0   0   0   0 
